(set-logic ALL)
(declare-fun var0 () String)
(assert (str.in_re var0 (re.++ (re.union (re.union (str.to_re "0") (str.to_re "111")) (re.union (str.to_re "222") (str.to_re "333"))) (re.++ (re.union (re.* (str.to_re "444")) (re.* (str.to_re "5"))) (re.++ (re.union (re.+ (str.to_re "666")) (re.+ (str.to_re "777"))) (re.++ (re.union (re.* (str.to_re "8")) (re.* (str.to_re "999"))) (re.++ (re.+ (re.+ (str.to_re "aaa"))) (re.++ (re.* (re.+ (str.to_re "bb"))) (re.++ (re.union (re.union (str.to_re "c") (str.to_re "ddd")) (re.union (str.to_re "eee") (str.to_re "f"))) (re.++ (re.+ (re.* (str.to_re "gg"))) (re.++ (re.+ (re.+ (str.to_re "hhh"))) (re.++ (re.* (re.union (str.to_re "i") (str.to_re "jjj"))) (re.++ (re.+ (re.* (str.to_re "kk"))) (re.++ (re.union (re.+ (str.to_re "ll")) (re.+ (str.to_re "m"))) (re.++ (re.+ (re.+ (str.to_re "n"))) (re.++ (re.union (re.union (str.to_re "o") (str.to_re "ppp")) (re.union (str.to_re "qq") (str.to_re "r"))) (re.++ (re.* (re.union (str.to_re "ss") (str.to_re "t"))) (re.++ (re.* (re.* (str.to_re "u"))) (re.++ (re.* (re.+ (str.to_re "vvv"))) (re.++ (re.union (re.* (str.to_re "ww")) (re.* (str.to_re "xx"))) (re.++ (re.union (re.+ (str.to_re "yy")) (re.+ (str.to_re "zzz"))) (re.++ (re.union (re.+ (str.to_re "A")) (re.+ (str.to_re "B"))) (re.++ (re.+ (re.+ (str.to_re "CCC"))) (re.++ (re.+ (re.+ (str.to_re "D"))) (re.++ (re.union (re.* (str.to_re "EE")) (re.* (str.to_re "F"))) (re.++ (re.+ (re.+ (str.to_re "GG"))) (re.++ (re.* (re.union (str.to_re "HHH") (str.to_re "III"))) (re.++ (re.union (re.+ (str.to_re "J")) (re.+ (str.to_re "KKK"))) (re.++ (re.* (re.union (str.to_re "LLL") (str.to_re "M"))) (re.++ (re.* (re.* (str.to_re "NN"))) (re.++ (re.* (re.union (str.to_re "OO") (str.to_re "P"))) (re.++ (re.+ (re.+ (str.to_re "Q"))) (re.++ (re.union (re.union (str.to_re "R") (str.to_re "SSS")) (re.union (str.to_re "TT") (str.to_re "UUU"))) (re.++ (re.+ (re.union (str.to_re "VV") (str.to_re "WWW"))) (re.++ (re.union (re.+ (str.to_re "XX")) (re.+ (str.to_re "YYY"))) (re.++ (re.+ (re.union (str.to_re "ZZ") (str.to_re "!!"))) (re.++ (re.* (re.+ (str.to_re """"""""))) (re.++ (re.union (re.+ (str.to_re "#")) (re.+ (str.to_re "$$"))) (re.++ (re.union (re.union (str.to_re "%") (str.to_re "&&&")) (re.union (str.to_re "'''") (str.to_re "(("))) (re.++ (re.+ (re.union (str.to_re ")") (str.to_re "***"))) (re.++ (re.+ (re.+ (str.to_re "+++"))) (re.++ (re.* (re.union (str.to_re ",,") (str.to_re "---"))) (re.++ (re.* (re.union (str.to_re "...") (str.to_re "//"))) (re.++ (re.* (re.* (str.to_re ":"))) (re.++ (re.+ (re.union (str.to_re ";") (str.to_re "<<"))) (re.++ (re.+ (re.* (str.to_re "="))) (re.++ (re.+ (re.union (str.to_re ">>") (str.to_re "???"))) (re.++ (re.* (re.+ (str.to_re "@"))) (re.++ (re.* (re.+ (str.to_re "[[["))) (re.++ (re.+ (re.union (str.to_re "\\\\\\") (str.to_re "]]"))) (re.++ (re.* (re.* (str.to_re "^"))) (re.++ (re.union (re.* (str.to_re "___")) (re.* (str.to_re "```"))) (re.++ (re.union (re.+ (str.to_re "{{{")) (re.+ (str.to_re "|"))) (re.++ (re.+ (re.union (str.to_re "}}") (str.to_re "~~"))) (re.++ (re.* (re.+ (str.to_re "00"))) (re.++ (re.* (re.* (str.to_re "111"))) (re.++ (re.+ (re.union (str.to_re "22") (str.to_re "3"))) (re.++ (re.union (re.+ (str.to_re "4")) (re.+ (str.to_re "555"))) (re.++ (re.union (re.union (str.to_re "66") (str.to_re "7")) (re.union (str.to_re "8") (str.to_re "9"))) (re.++ (re.+ (re.* (str.to_re "aaa"))) (re.union (re.union (str.to_re "bbb") (str.to_re "cc")) (re.union (str.to_re "dd") (str.to_re "ee")))))))))))))))))))))))))))))))))))))))))))))))))))))))))))))))
(check-sat)